r=1; % r deve essere >0
s=9; % s deve essere >r
n=9; % numero di righe del cruciverba     
m=5; % numero di colonne del cruciverba  
schema=[| 1,0,0,0,1
        | 0,0,0,0,0
        | 0,0,1,0,0
        | 0,0,1,1,0
        | 0,1,0,0,0
        | 0,0,0,0,0
        | 0,0,0,0,0
        | 0,0,0,0,1
        | 0,0,1,0,0          
        |];
orizzontali=[| 1,1,2,3       % definizioni orizzontali
             | 4,2,1,5
             | 6,3,1,2
             | 7,3,4,2
             | 8,4,1,2
             | 9,5,3,3
             |11,6,1,5 
             |13,7,1,5
             |14,8,1,4
             |15,9,1,2
             |16,9,4,2
            |];
no=11;             %numero definizioni orizzontali
verticali=[| 1,1,2,4             %definizioni verticali
           | 2,1,3,2
           | 3,1,4,3
           | 4,2,1,8
           | 5,2,5,6
           | 9,5,3,4
           | 10,5,4,5
           | 12,6,2,4
          |];
nv=8;            %numero definizioni verticali
S={1,2,3,7,8,12,20,25,30,32,40,42,45,60,108,120,192,360,720};       %definizioni